submitit INFO (2023-04-30 13:43:40,504) - Starting with JobEnvironment(job_id=27526, hostname=cpunode3, local_rank=3(5), node=0(1), global_rank=3(5))
submitit INFO (2023-04-30 13:43:40,504) - Loading pickle: /h/30/pashootan/Matrix-Mult-CP/src/../logs/2x2x2_5_Apr30_13:43:38/27526_submitted.pkl
 ! --------------------------------------------------- CP Optimizer 22.1.1.0 --
 ! Satisfiability problem - 60 variables, 108 constraints
 ! TimeLimit            = 7200
 ! Workers              = 8
 ! LogPeriod            = 10000000
 ! RandomSeed           = 6380
 ! Initial process time : 0.00s (0.00s extraction + 0.00s propagation)
 !  . Log search space  : 89.2 (before), 89.2 (after)
 !  . Memory usage      : 430.4 kB (before), 430.4 kB (after)
 ! Using parallel search with 8 workers.
 ! ----------------------------------------------------------------------------
 !               Branches  Non-fixed    W       Branch decision
 ! ----------------------------------------------------------------------------
 ! Search completed, model has no solution.
 ! ----------------------------------------------------------------------------
 ! Number of branches     : 2663880
 ! Number of fails        : 1308741
 ! Total memory usage     : 11.6 MB (11.6 MB CP Optimizer + 0.0 MB Concert)
 ! Time spent in solve    : 4.15s (4.15s engine + 0.00s extraction)
 ! Search speed (br. / s) : 641898.8
 ! ----------------------------------------------------------------------------
Infeasible
Saving stats to: /h/30/pashootan/Matrix-Mult-CP/logs/2x2x2_5_Apr30_13:43:38/27526_3_stats.csv
submitit INFO (2023-04-30 13:43:45,080) - Job completed successfully
